db/data/639110250136682270319181257183913450.z3.out
sat
-------------------
65.850769504
